NAME: PointSet_Angle_25_10
TYPE: TSP
COMMENT: Points chosen discrete uniformly at random out of ${0, \ldots, 500}^2$.
DIMENSION: 25
EDGE_WEIGHT_TYPE: EUC_2D
NODE_COORD_SECTION
1 234 194
2 362 333
3 231 417
4 471 443
5 387 62
6 62 207
7 281 213
8 176 261
9 209 344
10 457 192
11 209 259
12 27 413
13 428 357
14 254 483
15 169 332
16 250 150
17 272 111
18 483 2
19 275 199
20 191 161
21 7 500
22 114 34
23 212 290
24 42 421
25 380 499
EOF
